(set-logic HORN)
(declare-fun state (Int Int (Array Int Int) (Array Int Int) Int Int Int Int Int Bool Bool Bool Bool Bool Bool Bool Int Int Int (Array Int Int) (Array Int Int) (Array Int Int) (Array Int Int) Int Int Int Int Int Int Int Int Int Int Int Int) Bool)
(assert (forall ((|B_2| Int) (|.y.12| Int) (|T_0| (Array Int Int)) (|Y_0| (Array Int Int)) (|X_0| Int) (|S_0| Int) (|A_2| Int) (|H_1| Int) (|E_1| Int) (|.loc.13| Bool) (|.loc.14| Bool) (|O_0| Bool) (|B1| Bool) (|N_0| Bool) (|Z| Bool) (|C_0| Bool) (|W| Int) (|S| Int) (|R| Int) (|C1| (Array Int Int)) (|Y| (Array Int Int)) (|A1| (Array Int Int)) (|X| (Array Int Int)) (|Z_0| Int) (|W_0| Int) (|L_0| Int) (|Q_0| Int) (|P_0| Int) (|M_0| Int) (|V| Int) (|T| Int) (|E1_0| Int) (|U_0| Int) (|N_1| Int) (|M_1| Int) (|.loc.24| Bool) (|.loc.25| Bool) (|.y.23| Int) (|.y.21| Int) (|.y.19| Int) (|.y.20| Int) (|.y.22| Int) (|.y.15| Int) (|.y.17| (Array Int Int)) (|.y.18| (Array Int Int)) (|.y.16| Int) (|.xtv.1| Bool) (|.xtv.2| Bool) (|.xtv.3| Bool) (|.xtv.4| Bool) (|.xtv.5| Bool) (|.xtv.6| Int) (|.xtv.7| Int) (|.xtv.8| Int) (|.xtv.9| (Array Int Int)) (|.xtv.10| (Array Int Int)) (|.xtv.11| (Array Int Int)) (|.xtv.12| (Array Int Int)) (|.xtv.13| Int) (|.xtv.14| Int) (|.xtv.15| Int) (|.xtv.16| Int) (|.xtv.17| Int) (|.xtv.18| Int) (|.xtv.19| Int) (|.xtv.20| Int) (|.xtv.21| Int) (|.xtv.22| Int) (|.xtv.23| Int) (|.xtv.24| Int)) (=> (and (not .loc.14) (not .loc.13)) (state |B_2| |.y.12| |T_0| |Y_0| |X_0| |S_0| |A_2| |H_1| |E_1| |.loc.13| |.loc.14| |O_0| |B1| |N_0| |Z| |C_0| |W| |S| |R| |C1| |Y| |A1| |X| |Z_0| |W_0| |L_0| |Q_0| |P_0| |M_0| |V| |T| |E1_0| |U_0| |N_1| |M_1|))))
(assert (forall ((|B_2| Int) (|.y.12| Int) (|T_0| (Array Int Int)) (|Y_0| (Array Int Int)) (|X_0| Int) (|S_0| Int) (|A_2| Int) (|H_1| Int) (|E_1| Int) (|.loc.13| Bool) (|.loc.14| Bool) (|O_0| Bool) (|B1| Bool) (|N_0| Bool) (|Z| Bool) (|C_0| Bool) (|W| Int) (|S| Int) (|R| Int) (|C1| (Array Int Int)) (|Y| (Array Int Int)) (|A1| (Array Int Int)) (|X| (Array Int Int)) (|Z_0| Int) (|W_0| Int) (|L_0| Int) (|Q_0| Int) (|P_0| Int) (|M_0| Int) (|V| Int) (|T| Int) (|E1_0| Int) (|U_0| Int) (|N_1| Int) (|M_1| Int) (|.loc.24| Bool) (|.loc.25| Bool) (|.y.23| Int) (|.y.21| Int) (|.y.19| Int) (|.y.20| Int) (|.y.22| Int) (|.y.15| Int) (|.y.17| (Array Int Int)) (|.y.18| (Array Int Int)) (|.y.16| Int) (|.xtv.1| Bool) (|.xtv.2| Bool) (|.xtv.3| Bool) (|.xtv.4| Bool) (|.xtv.5| Bool) (|.xtv.6| Int) (|.xtv.7| Int) (|.xtv.8| Int) (|.xtv.9| (Array Int Int)) (|.xtv.10| (Array Int Int)) (|.xtv.11| (Array Int Int)) (|.xtv.12| (Array Int Int)) (|.xtv.13| Int) (|.xtv.14| Int) (|.xtv.15| Int) (|.xtv.16| Int) (|.xtv.17| Int) (|.xtv.18| Int) (|.xtv.19| Int) (|.xtv.20| Int) (|.xtv.21| Int) (|.xtv.22| Int) (|.xtv.23| Int) (|.xtv.24| Int)) (=> (and (state |B_2| |.y.12| |T_0| |Y_0| |X_0| |S_0| |A_2| |H_1| |E_1| |.loc.13| |.loc.14| |O_0| |B1| |N_0| |Z| |C_0| |W| |S| |R| |C1| |Y| |A1| |X| |Z_0| |W_0| |L_0| |Q_0| |P_0| |M_0| |V| |T| |E1_0| |U_0| |N_1| |M_1|) (let ((.def_66 (<= S_0 0))) (let ((.def_70 (<= X_0 0))) (let ((.def_105 (not .def_66))) (let ((.def_107 (not .def_70))) (let ((.def_111 (<= H_1 B_2))) (let ((.def_139 (not .loc.25))) (let ((.def_156 (not N_0))) (let ((.def_157 (or .def_70 .def_156))) (let ((.def_168 (not Z))) (let ((.def_177 (not B1))) (and (not .loc.14) (or (or (and (not .loc.24) (and (and .loc.13 (and (not (= (select Y_0 M_1) (select T_0 N_1))) (and (= (+ E1_0 (* (- 2) (select Y_0 Z_0))) 0) (and (not (= E1_0 (select T_0 U_0))) (and (or (not (<= N_1 0)) .def_66) (and (or (not (<= M_1 0)) .def_70) (and (or .def_66 (not (<= U_0 0))) (and (or .def_70 (not (<= Z_0 0))) (and (and (= (+ X_0 (+ (* (- 1) Z_0) W_0)) 0) (and (= (+ S_0 (+ W_0 (* (- 1) U_0))) 0) (and (and (and (= (+ X_0 (+ W_0 (* (- 1) M_1))) 0) (and (= (+ S_0 (+ W_0 (* (- 1) N_1))) 0) (and (not (<= W_0 (- 1))) (not (<= H_1 W_0))))) .def_105) .def_107))) .def_111))))))))) .loc.25)) (and (= .y.12 .y.23) (and (= B_2 .y.21) (and (not (<= .y.19 0)) (and (not (<= .y.20 0)) (and (not (<= .y.22 0)) (and (= .y.15 0) (and (not .loc.13) (and .loc.24 .def_139))))))))) (and (= E_1 .y.23) (and (= H_1 .y.22) (and (= A_2 .y.21) (and (= S_0 .y.20) (and (= X_0 .y.19) (and (or (not (<= W_0 0)) .def_157) (and (or .def_157 (not (<= L_0 0))) (and (or (not C_0) (or .def_156 (not .def_111))) (and (or (not (<= Q_0 0)) (or .def_70 .def_168)) (and (or (not (<= V 0)) (or .def_66 .def_168)) (and (or (not (<= M_0 0)) (or .def_66 .def_177)) (and (or .def_168 (= A1 .y.17)) (and (or .def_177 (= C1 .y.17)) (and (or .def_156 (= O_0 (= M_1 0))) (and (or .def_156 (= A_2 N_1)) (and (or .def_156 (= B_2 U_0)) (and (or .def_156 (= (+ X_0 (+ (* (- 1) W_0) U_0)) 0)) (and (or .def_156 (= B_2 E1_0)) (and (or .def_156 (= (+ X_0 (+ (* (- 1) L_0) E1_0)) 0)) (and (or .def_156 (= B_2 P_0)) (and (or .def_107 .def_156) (and (or .def_168 (= X (store T_0 V W))) (and (or .def_168 (= (+ X_0 (+ (* (- 1) Q_0) P_0)) 0)) (and (or .def_168 (= B_2 T)) (and (or .def_168 (= (+ S_0 (+ (* (- 1) V) T)) 0)) (and (or .def_107 .def_168) (and (or .def_105 .def_168) (and (or .def_177 (= Y (store T_0 M_0 R))) (and (or .def_177 (= (+ S_0 (+ P_0 (* (- 1) M_0))) 0)) (and (or .def_105 .def_177) (and (= (+ B_2 (* (- 1) .y.15)) (- 1)) (and (or .def_168 (= S (select .y.18 Q_0))) (and (or .def_156 (= R (select .y.18 L_0))) (and (or .def_156 (= .y.18 (store Y_0 W_0 Z_0))) (and .def_139 (and .loc.24 (and .loc.13 (and (or B1 Z) (and (or .def_168 (= A1 X)) (and (or .def_177 (= C1 Y)) (and (or .def_177 (and B1 N_0)) (and (or .def_168 (and N_0 Z)) (and (or .def_168 (= (+ W (+ (* (- 1) S) (* (- 1) R))) 0)) (and (or .def_156 (and N_0 C_0)) (and (or .def_156 (or O_0 .def_168)) (or .def_156 (or .def_177 (not O_0))))))))))))))))))))))))))))))))))))))))))))))))))))))))))))) (state |.y.15| |.y.16| |.y.17| |.y.18| |.y.19| |.y.20| |.y.21| |.y.22| |.y.23| |.loc.24| |.loc.25| |.xtv.1| |.xtv.2| |.xtv.3| |.xtv.4| |.xtv.5| |.xtv.6| |.xtv.7| |.xtv.8| |.xtv.9| |.xtv.10| |.xtv.11| |.xtv.12| |.xtv.13| |.xtv.14| |.xtv.15| |.xtv.16| |.xtv.17| |.xtv.18| |.xtv.19| |.xtv.20| |.xtv.21| |.xtv.22| |.xtv.23| |.xtv.24|))))
(assert (forall ((|B_2| Int) (|.y.12| Int) (|T_0| (Array Int Int)) (|Y_0| (Array Int Int)) (|X_0| Int) (|S_0| Int) (|A_2| Int) (|H_1| Int) (|E_1| Int) (|.loc.13| Bool) (|.loc.14| Bool) (|O_0| Bool) (|B1| Bool) (|N_0| Bool) (|Z| Bool) (|C_0| Bool) (|W| Int) (|S| Int) (|R| Int) (|C1| (Array Int Int)) (|Y| (Array Int Int)) (|A1| (Array Int Int)) (|X| (Array Int Int)) (|Z_0| Int) (|W_0| Int) (|L_0| Int) (|Q_0| Int) (|P_0| Int) (|M_0| Int) (|V| Int) (|T| Int) (|E1_0| Int) (|U_0| Int) (|N_1| Int) (|M_1| Int) (|.loc.24| Bool) (|.loc.25| Bool) (|.y.23| Int) (|.y.21| Int) (|.y.19| Int) (|.y.20| Int) (|.y.22| Int) (|.y.15| Int) (|.y.17| (Array Int Int)) (|.y.18| (Array Int Int)) (|.y.16| Int) (|.xtv.1| Bool) (|.xtv.2| Bool) (|.xtv.3| Bool) (|.xtv.4| Bool) (|.xtv.5| Bool) (|.xtv.6| Int) (|.xtv.7| Int) (|.xtv.8| Int) (|.xtv.9| (Array Int Int)) (|.xtv.10| (Array Int Int)) (|.xtv.11| (Array Int Int)) (|.xtv.12| (Array Int Int)) (|.xtv.13| Int) (|.xtv.14| Int) (|.xtv.15| Int) (|.xtv.16| Int) (|.xtv.17| Int) (|.xtv.18| Int) (|.xtv.19| Int) (|.xtv.20| Int) (|.xtv.21| Int) (|.xtv.22| Int) (|.xtv.23| Int) (|.xtv.24| Int)) (=> (state |B_2| |.y.12| |T_0| |Y_0| |X_0| |S_0| |A_2| |H_1| |E_1| |.loc.13| |.loc.14| |O_0| |B1| |N_0| |Z| |C_0| |W| |S| |R| |C1| |Y| |A1| |X| |Z_0| |W_0| |L_0| |Q_0| |P_0| |M_0| |V| |T| |E1_0| |U_0| |N_1| |M_1|) (not (and .loc.14 (not .loc.13))))))
(check-sat)
